min: 11.3 x12 + 4.3 x13 + 44.1 x14 + 49.3 x15 + 50.8 x16 + 60.1 x17 + 42.2 x23 + 45.0 x24  + 51.5 x25 + 47.5 x26 + 57.9 x27 + 6.5 x34 + 14.6 x35 + 12.2 x36 + 17.7 x37 + 8.3 x45 + 17.7 x46 + 20.1 x47 + 24.4 x56 +23.0 x57 + 11.2 x67 +
	11.3 x21 + 4.3 x31 + 42.2 x32 + 44.1 x41 + 45.0 x42 + 6.5 x43 + 49.3 x51 + 51.5 x52 + x53 + x54 + 50.8 x61 + 47.5 x62 + 12.2 x63 + 17.7 x64 + 24.4 x65 + 60.1 x71 + 57.9 x72 + 17.7 x73 + 20.1x74 + 23.0 x75 + 11.2 x76;

/*path*/
/*input*/
x12 + x13 + x14 + x15 + x16 +x17 = 1;
x21 + x23 + x24 + x25 + x26 +x27 = 1;
x31 + x32 + x34 + x35 + x36 +x37 = 1;
x41 + x42 + x43 + x45 + x46 +x47 = 1;
x51 + x52 + x53 + x54 + x56 +x57 = 1;
x61 + x62 + x63 + x65 + x65 +x67 = 1;
x71 + x72 + x73 + x75 + x76 +x76 = 1;

/*output*/
x21 + x31 + x41 + x51 + x61 + x71= 1;
x32 + x42 + x12 + x52 + x62 + x72= 1;
x13 + x23 + x43 + x53 + x63 + x73= 1;
x14 + x24 + x34 + x54 + x64 + x74= 1;
x15 + x25 + x35 + x56 + x65 + x75= 1;
x16 + x26 + x36 + x46 + x56 + x76= 1;
x17 + x27 + x37 + x47 + x57 + x67= 1;

/*no cycle*/
x12+x21 <= 1;
x13+x31 <= 1;
x14+x41 <= 1;
x23+x32 <= 1;
x24+x42 <= 1;
x34+x43 <= 1;

x12+x23+x31 <= 2;
x12+x24+x41 <= 2;
x12+x25+x51 <= 2;
x12+x26+x61 <= 2;
x12+x27+x71 <= 2;

x13+x32+x21 <= 2;
x13+x34+x41 <= 2;
x13+x35+x51 <= 2;
x13+x36+x61 <= 2;
x13+x37+x71 <= 2;

x14+x42+x21 <= 2;
x14+x43+x31 <= 2;
x14+x45+x51 <= 2;
x14+x46+x61 <= 2;
x14+x47+x71 <= 2;

x15+x52+x21 <= 2;
x15+x53+x31 <= 2;
x15+x54+x41 <= 2;
x15+x56+x61 <= 2;
x15+x57+x71 <= 2;

x16+x62+x21 <= 2;
x16+x63+x31 <= 2;
x16+x64+x41 <= 2;
x16+x65+x51 <= 2;
x16+x67+x71 <= 2;

x17+x72+x21 <= 2;
x17+x73+x31 <= 2;
x17+x74+x41 <= 2;
x17+x75+x51 <= 2;
x17+x76+x61 <= 2;
/**/
x12+x23+x34+x41 <= 3;
x12+x23+x35+x51 <= 3;
x12+x23+x36+x61 <= 3;
x12+x23+x37+x71 <= 3;

x12+x24+x43+x31 <= 3;
x12+x24+x45+x51 <= 3;
x12+x24+x46+x61 <= 3;
x12+x24+x47+x71 <= 3;

x12+x25+x52+x21 <= 3;
x12+x25+x54+x41 <= 3;
x12+x25+x56+x61 <= 3;
x12+x25+x57+x71 <= 3;

x12+x26+x63+x31 <= 3;
x12+x26+x64+x41 <= 3;
x12+x26+x65+x51 <= 3;
x12+x26+x67+x71 <= 3;

x12+x27+x73+x31 <= 3;
x12+x27+x74+x41 <= 3;
x12+x27+x75+x51 <= 3;
x12+x27+x76+x61 <= 3;
/**/
x13+x32+x24+x41 <= 3;
x13+x32+x25+x51 <= 3;
x13+x32+x26+x61 <= 3;
x13+x32+x27+x71 <= 3;

x13+x34+x42+x21 <= 3;
x13+x34+x45+x51 <= 3;
x13+x34+x46+x61 <= 3;
x13+x34+x47+x71 <= 3;

x13+x35+x52+x21 <= 3;
x13+x35+x54+x41 <= 3;
x13+x35+x56+x61 <= 3;
x13+x35+x57+x71 <= 3;

x13+x36+x63+x31 <= 3;
x13+x36+x64+x41 <= 3;
x13+x36+x65+x51 <= 3;
x13+x36+x67+x71 <= 3;

x13+x37+x73+x31 <= 3;
x13+x37+x74+x41 <= 3;
x13+x37+x75+x51 <= 3;
x13+x37+x76+x61 <= 3;
/**/
x14+x42+x23+x31 <= 3;
x14+x42+x25+x51 <= 3;
x14+x42+x26+x61 <= 3;
x14+x42+x27+x71 <= 3;

x14+x43+x34+x31 <= 3;
x14+x43+x35+x51 <= 3;
x14+x43+x36+x61 <= 3;
x14+x43+x37+x71 <= 3;

x14+x45+x52+x21 <= 3;
x14+x45+x54+x41 <= 3;
x14+x45+x56+x61 <= 3;
x14+x45+x57+x71 <= 3;

x14+x46+x63+x31 <= 3;
x14+x46+x64+x41 <= 3;
x14+x46+x65+x51 <= 3;
x14+x46+x67+x71 <= 3;

x14+x47+x73+x31 <= 3;
x14+x47+x74+x41 <= 3;
x14+x47+x75+x51 <= 3;
x14+x47+x76+x61 <= 3;
/**/
x15+x52+x24+x41 <= 3;
x15+x52+x25+x51 <= 3;
x15+x52+x26+x61 <= 3;
x15+x52+x27+x71 <= 3;

x15+x53+x34+x31 <= 3;
x15+x53+x35+x51 <= 3;
x15+x53+x36+x61 <= 3;
x15+x53+x37+x71 <= 3;

x15+x54+x42+x21 <= 3;
x15+x54+x44+x41 <= 3;
x15+x54+x46+x61 <= 3;
x15+x54+x47+x71 <= 3;

x15+x56+x63+x31 <= 3;
x15+x56+x64+x41 <= 3;
x15+x56+x62+x21 <= 3;
x15+x56+x67+x71 <= 3;

x15+x57+x73+x31 <= 3;
x15+x57+x74+x41 <= 3;
x15+x57+x75+x51 <= 3;
x15+x57+x76+x61 <= 3;
/**/
x16+x62+x24+x41 <= 3;
x16+x62+x25+x51 <= 3;
x16+x62+x26+x61 <= 3;
x16+x62+x27+x71 <= 3;

x16+x63+x34+x31 <= 3;
x16+x63+x35+x51 <= 3;
x16+x63+x36+x61 <= 3;
x16+x63+x37+x71 <= 3;

x16+x64+x42+x21 <= 3;
x16+x64+x44+x41 <= 3;
x16+x64+x46+x61 <= 3;
x16+x64+x47+x71 <= 3;

x16+x65+x53+x31 <= 3;
x16+x65+x54+x41 <= 3;
x16+x65+x55+x51 <= 3;
x16+x65+x57+x71 <= 3;

x16+x67+x73+x31 <= 3;
x16+x67+x74+x41 <= 3;
x16+x67+x75+x51 <= 3;
x16+x67+x72+x21 <= 3;
/**/
x17+x72+x24+x41 <= 3;
x17+x72+x25+x51 <= 3;
x17+x72+x26+x61 <= 3;
x17+x72+x27+x71 <= 3;

x17+x73+x34+x31 <= 3;
x17+x73+x35+x51 <= 3;
x17+x73+x36+x61 <= 3;
x17+x73+x37+x71 <= 3;

x17+x74+x42+x21 <= 3;
x17+x74+x44+x41 <= 3;
x17+x74+x46+x61 <= 3;
x17+x74+x47+x71 <= 3;

x17+x75+x53+x31 <= 3;
x17+x75+x54+x41 <= 3;
x17+x75+x55+x51 <= 3;
x17+x75+x52+x21 <= 3;

x17+x76+x63+x31 <= 3;
x17+x76+x64+x41 <= 3;
x17+x76+x65+x51 <= 3;
x17+x76+x62+x21 <= 3;
/***/
x12+x23+x34+x45+x51 <= 4;
x12+x23+x34+x46+x61 <= 4;
x12+x23+x34+x47+x71 <= 4;

x12+x23+x35+x54+x41 <= 4;
x12+x23+x35+x56+x61 <= 4;
x12+x23+x35+x57+x71 <= 4;

x12+x23+x36+x64+x41 <= 4;
x12+x23+x36+x65+x51 <= 4;
x12+x23+x36+x67+x71 <= 4;

x12+x23+x37+x74+x41 <= 4;
x12+x23+x37+x75+x51 <= 4;
x12+x23+x37+x76+x61 <= 4;
/***/
x12+x24+x43+x35+x51 <= 4;
x12+x24+x43+x36+x61 <= 4;
x12+x24+x43+x37+x71 <= 4;

x12+x24+x45+x54+x41 <= 4;
x12+x24+x45+x56+x61 <= 4;
x12+x24+x45+x57+x71 <= 4;

x12+x24+x46+x64+x41 <= 4;
x12+x24+x46+x65+x51 <= 4;
x12+x24+x46+x67+x71 <= 4;

x12+x24+x47+x74+x41 <= 4;
x12+x24+x47+x75+x51 <= 4;
x12+x24+x47+x76+x61 <= 4;
/***/
x12+x25+x53+x35+x51 <= 4;
x12+x25+x53+x36+x61 <= 4;
x12+x25+x53+x37+x71 <= 4;

x12+x25+x54+x43+x31 <= 4;
x12+x25+x54+x46+x61 <= 4;
x12+x25+x54+x47+x71 <= 4;

x12+x25+x56+x64+x41 <= 4;
x12+x25+x56+x65+x51 <= 4;
x12+x25+x56+x67+x71 <= 4;

x12+x25+x57+x74+x41 <= 4;
x12+x25+x57+x75+x51 <= 4;
x12+x25+x57+x76+x61 <= 4;
/***/
x12+x26+x63+x35+x51 <= 4;
x12+x26+x63+x36+x61 <= 4;
x12+x26+x63+x37+x71 <= 4;

x12+x26+x64+x43+x31 <= 4;
x12+x26+x64+x46+x61 <= 4;
x12+x26+x64+x47+x71 <= 4;

x12+x26+x65+x54+x41 <= 4;
x12+x26+x65+x56+x61 <= 4;
x12+x26+x65+x57+x71 <= 4;

x12+x26+x67+x74+x41 <= 4;
x12+x26+x67+x75+x51 <= 4;
x12+x26+x67+x76+x61 <= 4;
/***/
x12+x27+x73+x35+x51 <= 4;
x12+x27+x73+x36+x61 <= 4;
x12+x27+x73+x37+x71 <= 4;

x12+x27+x74+x43+x31 <= 4;
x12+x27+x74+x46+x61 <= 4;
x12+x27+x74+x47+x71 <= 4;

x12+x27+x75+x54+x41 <= 4;
x12+x27+x75+x56+x61 <= 4;
x12+x27+x75+x57+x71 <= 4;

x12+x27+x76+x64+x41 <= 4;
x12+x27+x76+x65+x51 <= 4;
x12+x27+x76+x63+x31 <= 4;


/***/
x13+x32+x24+x45+x51 <= 4;
x13+x32+x24+x46+x61 <= 4;
x13+x32+x24+x47+x71 <= 4;

x13+x32+x25+x54+x41 <= 4;
x13+x32+x25+x56+x61 <= 4;
x13+x32+x25+x57+x71 <= 4;

x13+x32+x26+x64+x41 <= 4;
x13+x32+x26+x65+x51 <= 4;
x13+x32+x26+x67+x71 <= 4;

x13+x32+x27+x74+x41 <= 4;
x13+x32+x27+x75+x51 <= 4;
x13+x32+x27+x76+x61 <= 4;
/***/
x13+x34+x42+x25+x51 <= 4;
x13+x34+x42+x26+x61 <= 4;
x13+x34+x42+x27+x71 <= 4;

x13+x34+x45+x54+x41 <= 4;
x13+x34+x45+x56+x61 <= 4;
x13+x34+x45+x57+x71 <= 4;

x13+x34+x46+x64+x41 <= 4;
x13+x34+x46+x65+x51 <= 4;
x13+x34+x46+x67+x71 <= 4;

x13+x34+x47+x74+x41 <= 4;
x13+x34+x47+x75+x51 <= 4;
x13+x34+x47+x76+x61 <= 4;
/***/
x13+x35+x52+x25+x51 <= 4;
x13+x35+x52+x26+x61 <= 4;
x13+x35+x52+x27+x71 <= 4;

x13+x35+x54+x43+x31 <= 4;
x13+x35+x54+x46+x61 <= 4;
x13+x35+x54+x47+x71 <= 4;

x13+x35+x56+x64+x41 <= 4;
x13+x35+x56+x65+x51 <= 4;
x13+x35+x56+x67+x71 <= 4;

x13+x35+x57+x74+x41 <= 4;
x13+x35+x57+x75+x51 <= 4;
x13+x35+x57+x76+x61 <= 4;
/***/
x13+x36+x62+x25+x51 <= 4;
x13+x36+x62+x26+x61 <= 4;
x13+x36+x62+x27+x71 <= 4;

x13+x36+x64+x43+x31 <= 4;
x13+x36+x64+x46+x61 <= 4;
x13+x36+x64+x47+x71 <= 4;

x13+x36+x65+x54+x41 <= 4;
x13+x36+x65+x56+x61 <= 4;
x13+x36+x65+x57+x71 <= 4;

x13+x36+x67+x74+x41 <= 4;
x13+x36+x67+x75+x51 <= 4;
x13+x36+x67+x76+x61 <= 4;
/***/
x13+x37+x72+x25+x51 <= 4;
x13+x37+x72+x26+x61 <= 4;
x13+x37+x72+x27+x71 <= 4;

x13+x37+x74+x43+x31 <= 4;
x13+x37+x74+x46+x61 <= 4;
x13+x37+x74+x47+x71 <= 4;

x13+x37+x75+x54+x41 <= 4;
x13+x37+x75+x56+x61 <= 4;
x13+x37+x75+x57+x71 <= 4;

x13+x37+x76+x64+x41 <= 4;
x13+x37+x76+x65+x51 <= 4;
x13+x37+x76+x62+x21 <= 4;
/***/



/**********************************
* Si + tdij + tsi -bj <= M(1- xij)*
***********************************/

/*T1 + 1- T2<= 100 - 100 x12;
T1 + 3- T3<= 100 - 100 x13;
T1 + 2- T4<= 100 - 100 x14;
               
T2 + 1- T1<= 100 - 100 x21;
T2 + 1- T3<= 100 - 100 x23;
T2 + 2- T4<= 100 - 100 x24;
               
T3 + 3- T1<= 100 - 100 x31;
T3 + 1- T2<= 100 - 100 x32;
T3 + 1- T4<= 100 - 100 x34;

T4 + 2- T1<= 100 - 100 x41;                   
T4 + 2- T2<= 100 - 100 x42;                   
T4 + 1- T<= 100 - 100 x43;                   
*/

0 <= T1;
10 <= T2;
120 <= T3;
120 <= T4;
120 <= T5;
60 <= T6;
90 <= T7;

T1 <= 2;
T2 <= 20;
T3 <= 150;
T4 <= 150;
T5 <= 150;
T6 <= 80;
T6 <= 130;


binary x12, x13, x14, x15, x16, x17, x23, x24 , x25,x26, x27, x34, x35, x36, x37, x45,x46, x47, x56,x57,x67,
	x21, x31, x32, x41, x42, x43, x51, x52, x53, x54, x61, x62, x63, x64, x65, x71, x72, x73, x74, x75,x76;

